Version identifier: 22.1.1.0 | 2022-11-28 | 9160aff4d
Tried aggregator 1 time.
Reduced MIP has 4735 rows, 2888 columns, and 13965 nonzeros.
Reduced MIP has 2888 binaries, 0 generals, 0 SOSs, and 0 indicators.
Presolve time = 0.04 sec. (13.95 ticks)
Found incumbent of value 630155.000000 after 0.07 sec. (16.36 ticks)
Probing time = 0.01 sec. (3.39 ticks)
Tried aggregator 1 time.
Detecting symmetries...
Reduced MIP has 4735 rows, 2888 columns, and 13965 nonzeros.
Reduced MIP has 2888 binaries, 0 generals, 0 SOSs, and 0 indicators.
Presolve time = 0.01 sec. (15.85 ticks)
Probing time = 0.01 sec. (3.39 ticks)
Clique table members: 2880.
MIP emphasis: balance optimality and feasibility.
MIP search method: dynamic search.
Parallel mode: deterministic, using up to 14 threads.
Root relaxation solution time = 0.02 sec. (8.53 ticks)

        Nodes                                         Cuts/
   Node  Left     Objective  IInf  Best Integer    Best Bound    ItCnt     Gap

*     0+    0                       630155.0000        0.0000           100.00%
*     0+    0                       326288.0000        0.0000           100.00%
*     0+    0                       102152.0000        0.0000           100.00%
*     0+    0                        85694.0000        0.0000           100.00%
      0     0    56357.0000    79    85694.0000    56357.0000      250   34.23%
*     0+    0                        67796.0000    56357.0000            16.87%
*     0     0      integral     0    56540.0000       Cuts: 7      253    0.00%
      0     0        cutoff          56540.0000    56540.0000      253    0.00%
Elapsed time = 0.20 sec. (83.00 ticks, tree = 0.01 MB, solutions = 6)

Implied bound cuts applied:  5
Zero-half cuts applied:  1
Lift and project cuts applied:  1

Root node processing (before b&c):
  Real time             =    0.21 sec. (83.20 ticks)
Parallel b&c, 14 threads:
  Real time             =    0.00 sec. (0.00 ticks)
  Sync time (average)   =    0.00 sec.
  Wait time (average)   =    0.00 sec.
                          ------------
Total (root+branch&cut) =    0.21 sec. (83.20 ticks)
Status: Optimal
Obj: 56540

Instalacoes abertas:
Instalação 3 aberta
Instalação 4 aberta
Instalação 5 aberta
Instalação 8 aberta
Instalação 12 aberta
Instalação 19 aberta
Instalação 24 aberta
Instalação 25 aberta
Instalação 28 aberta
Instalação 29 aberta
Instalação 30 aberta

Atribuições (cliente -> instalação):
Cliente 0 -> Instalação 30
Cliente 1 -> Instalação 19
Cliente 2 -> Instalação 29
Cliente 3 -> Instalação 25
Cliente 4 -> Instalação 8
Cliente 5 -> Instalação 12
Cliente 6 -> Instalação 28
Cliente 7 -> Instalação 5
Cliente 8 -> Instalação 29
Cliente 9 -> Instalação 8
Cliente 10 -> Instalação 5
Cliente 11 -> Instalação 28
Cliente 12 -> Instalação 25
Cliente 13 -> Instalação 5
Cliente 14 -> Instalação 12
Cliente 15 -> Instalação 4
Cliente 16 -> Instalação 25
Cliente 17 -> Instalação 28
Cliente 18 -> Instalação 3
Cliente 19 -> Instalação 28
Cliente 20 -> Instalação 28
Cliente 21 -> Instalação 5
Cliente 22 -> Instalação 30
Cliente 23 -> Instalação 25
Cliente 24 -> Instalação 5
Cliente 25 -> Instalação 19
Cliente 26 -> Instalação 3
Cliente 27 -> Instalação 5
Cliente 28 -> Instalação 5
Cliente 29 -> Instalação 24
Cliente 30 -> Instalação 5
Cliente 31 -> Instalação 4
Cliente 32 -> Instalação 5
Cliente 33 -> Instalação 28
Cliente 34 -> Instalação 24
Cliente 35 -> Instalação 29
Cliente 36 -> Instalação 19
Cliente 37 -> Instalação 24
Cliente 38 -> Instalação 12
Cliente 39 -> Instalação 5
Cliente 40 -> Instalação 25
Cliente 41 -> Instalação 19
Cliente 42 -> Instalação 29
Cliente 43 -> Instalação 3
Cliente 44 -> Instalação 8
Cliente 45 -> Instalação 3
Cliente 46 -> Instalação 29
Cliente 47 -> Instalação 3
Cliente 48 -> Instalação 3
Cliente 49 -> Instalação 12
Cliente 50 -> Instalação 30
Cliente 51 -> Instalação 25
Cliente 52 -> Instalação 8
Cliente 53 -> Instalação 25
Cliente 54 -> Instalação 29
Cliente 55 -> Instalação 25
Cliente 56 -> Instalação 29
Cliente 57 -> Instalação 12
Cliente 58 -> Instalação 30
Cliente 59 -> Instalação 19
Cliente 60 -> Instalação 4
Cliente 61 -> Instalação 29
Cliente 62 -> Instalação 4
Cliente 63 -> Instalação 19
Cliente 64 -> Instalação 25
Cliente 65 -> Instalação 8
Cliente 66 -> Instalação 12
Cliente 67 -> Instalação 4
Cliente 68 -> Instalação 25
Cliente 69 -> Instalação 19
Cliente 70 -> Instalação 3
Cliente 71 -> Instalação 4
Cliente 72 -> Instalação 12
Cliente 73 -> Instalação 25
Cliente 74 -> Instalação 8
Cliente 75 -> Instalação 25
Cliente 76 -> Instalação 8
Cliente 77 -> Instalação 12
Cliente 78 -> Instalação 28
Cliente 79 -> Instalação 3
